Distorted diamond Si for geometry optimization homework
1.0
5.4300000000 0.0000000000 0.0000000000
0.0000000000 5.4300000000 0.0000000000
0.0000000000 0.0000000000 5.4300000000
Si
8
Direct
    0.00000000    0.00000000    0.00000000
    0.01500000    0.49250000    0.51125000
    0.48875000    0.01875000    0.49250000
    0.50750000    0.51125000    0.98500000
    0.27625000    0.23125000    0.26500000
    0.23125000    0.76125000    0.77250000
    0.76500000    0.27250000    0.73125000
    0.72750000    0.73500000    0.26875000
